<number of tasks>
50

<cycle time>
1000

<order strength>
0.595


<task times>
1 570
2 233
3 245
4 340
5 515
6 154
7 529
8 208
9 257
10 170
11 473
12 532
13 203
14 349
15 78
16 316
17 277
18 302
19 185
20 158
21 23
22 96
23 192
24 315
25 55
26 37
27 513
28 483
29 496
30 236
31 40
32 57
33 147
34 303
35 434
36 281
37 201
38 270
39 455
40 126
41 63
42 313
43 145
44 232
45 94
46 26
47 254
48 119
49 264
50 57

<precedence relations>
1,28
2,3
2,4
2,5
2,6
2,7
2,8
3,9
4,9
5,9
6,9
7,9
8,10
8,11
8,12
9,13
9,14
9,15
9,16
9,17
10,39
11,20
11,23
11,25
11,26
11,29
11,30
12,17
12,18
12,26
13,20
13,22
14,20
14,24
15,19
15,23
15,24
16,21
16,31
16,40
17,23
17,36
18,19
18,25
18,31
18,37
19,28
20,28
21,39
22,24
22,25
22,26
22,27
23,31
23,47
24,28
25,39
26,31
26,50
27,29
27,30
28,32
28,33
28,34
28,35
28,36
28,38
29,39
30,36
30,37
30,40
32,39
34,47
34,48
34,49
35,40
35,41
35,49
36,39
37,47
37,48
38,40
38,41
39,42
39,43
39,44
39,45
39,46
39,47
41,47
41,48
42,50
43,48
44,49
44,50
45,50
46,49
46,50

<end>
